NAME : st70.1377.tour
COMMENT : Cost = 210_1377
COMMENT : Found by LKH [Keld Helsgaun] Thu Nov 16 17:54:54 2017
TYPE : TOUR
DIMENSION : 79
TOUR_SECTION
1
23
71
16
72
6
41
43
27
46
9
17
53
47
73
66
4
32
3
14
20
30
44
68
42
18
76
64
65
11
48
67
56
51
37
78
2
7
8
28
49
55
26
19
63
22
38
75
13
31
69
59
57
24
15
35
70
29
74
10
34
61
45
25
21
5
77
58
50
60
33
54
62
39
40
12
52
79
36
-1
EOF
